(set-info :smt-lib-version 2.6)
(set-info :category "crafted")
(set-logic QF_FF)
(define-sort FF0 () (_ FiniteField 52435875175126190479447740508185965837690552500527637822603658699938581184513))
(declare-fun return_n1_alt () FF0)
(declare-fun mul_n13_alt () FF0)
(declare-fun mul_n21_alt () FF0)
(declare-fun k_n3_alt () FF0)
(declare-fun mul_n14_alt () FF0)
(declare-fun mul_n20_alt () FF0)
(declare-fun mul_n15_alt () FF0)
(declare-fun b_n10_alt () FF0)
(declare-fun e_n4_alt () FF0)
(declare-fun mul_n19_alt () FF0)
(declare-fun l_n0_alt () FF0)
(declare-fun mul_n18_alt () FF0)
(declare-fun j_n5_alt () FF0)
(declare-fun mul_n17_alt () FF0)
(declare-fun g_n11_alt () FF0)
(declare-fun mul_n16_alt () FF0)
(declare-fun f_n2_alt () FF0)
(declare-fun c_n8_alt () FF0)
(declare-fun d_n6_alt () FF0)
(declare-fun a_n12_alt () FF0)
(declare-fun i_n7_alt () FF0)
(declare-fun h_n9_alt () FF0)
(declare-fun return_n1 () FF0)
(declare-fun mul_n13 () FF0)
(declare-fun mul_n21 () FF0)
(declare-fun k_n3 () FF0)
(declare-fun mul_n14 () FF0)
(declare-fun mul_n20 () FF0)
(declare-fun mul_n15 () FF0)
(declare-fun b_n10 () FF0)
(declare-fun e_n4 () FF0)
(declare-fun mul_n19 () FF0)
(declare-fun l_n0 () FF0)
(declare-fun mul_n18 () FF0)
(declare-fun j_n5 () FF0)
(declare-fun mul_n17 () FF0)
(declare-fun g_n11 () FF0)
(declare-fun mul_n16 () FF0)
(declare-fun f_n2 () FF0)
(declare-fun c_n8 () FF0)
(declare-fun d_n6 () FF0)
(declare-fun a_n12 () FF0)
(declare-fun i_n7 () FF0)
(declare-fun h_n9 () FF0)
(assert 
  (let ((let0 return_n1_alt))
  (let ((let1 (as ff1 FF0)))
  (let ((let2 (as ff52435875175126190479447740508185965837690552500527637822603658699938581184512 FF0)))
  (let ((let3 mul_n13_alt))
  (let ((let4 (ff.mul let3 let2)))
  (let ((let5 (ff.add let4 let1)))
  (let ((let6 mul_n21_alt))
  (let ((let7 (ff.mul let6 let5)))
  (let ((let8 (= let7 let0)))
  (let ((let9 k_n3_alt))
  (let ((let10 mul_n14_alt))
  (let ((let11 (ff.add let10 let9)))
  (let ((let12 mul_n20_alt))
  (let ((let13 (ff.mul let12 let11)))
  (let ((let14 (= let13 let6)))
  (let ((let15 mul_n15_alt))
  (let ((let16 b_n10_alt))
  (let ((let17 (ff.mul let16 let2)))
  (let ((let18 e_n4_alt))
  (let ((let19 (ff.mul let18 let2)))
  (let ((let20 (ff.add let19 let17 let15 let1)))
  (let ((let21 mul_n19_alt))
  (let ((let22 (ff.mul let21 let20)))
  (let ((let23 (= let22 let12)))
  (let ((let24 l_n0_alt))
  (let ((let25 mul_n18_alt))
  (let ((let26 (ff.mul let25 let24)))
  (let ((let27 (= let26 let21)))
  (let ((let28 j_n5_alt))
  (let ((let29 mul_n17_alt))
  (let ((let30 (ff.mul let29 let28)))
  (let ((let31 (= let30 let25)))
  (let ((let32 g_n11_alt))
  (let ((let33 mul_n16_alt))
  (let ((let34 (ff.mul let33 let32)))
  (let ((let35 (= let34 let29)))
  (let ((let36 f_n2_alt))
  (let ((let37 c_n8_alt))
  (let ((let38 (ff.mul let37 let36)))
  (let ((let39 (= let38 let33)))
  (let ((let40 (as ff2 FF0)))
  (let ((let41 (ff.mul let16 let40)))
  (let ((let42 (ff.mul let41 let18)))
  (let ((let43 (= let42 let15)))
  (let ((let44 (ff.mul let9 let2)))
  (let ((let45 d_n6_alt))
  (let ((let46 (ff.add let45 let44)))
  (let ((let47 a_n12_alt))
  (let ((let48 (ff.mul let47 let46)))
  (let ((let49 (= let48 let10)))
  (let ((let50 i_n7_alt))
  (let ((let51 (ff.mul let50 let2)))
  (let ((let52 (ff.add let51 let1)))
  (let ((let53 h_n9_alt))
  (let ((let54 (ff.mul let53 let52)))
  (let ((let55 (= let54 let3)))
  (let ((let56 (and let55 let49 let43 let39 let35 let31 let27 let23 let14 let8)))
  (let ((let57 return_n1))
  (let ((let58 mul_n13))
  (let ((let59 (ff.mul let58 let2)))
  (let ((let60 (ff.add let59 let1)))
  (let ((let61 mul_n21))
  (let ((let62 (ff.mul let61 let60)))
  (let ((let63 (= let62 let57)))
  (let ((let64 k_n3))
  (let ((let65 mul_n14))
  (let ((let66 (ff.add let65 let64)))
  (let ((let67 mul_n20))
  (let ((let68 (ff.mul let67 let66)))
  (let ((let69 (= let68 let61)))
  (let ((let70 mul_n15))
  (let ((let71 b_n10))
  (let ((let72 (ff.mul let71 let2)))
  (let ((let73 e_n4))
  (let ((let74 (ff.mul let73 let2)))
  (let ((let75 (ff.add let74 let72 let70 let1)))
  (let ((let76 mul_n19))
  (let ((let77 (ff.mul let76 let75)))
  (let ((let78 (= let77 let67)))
  (let ((let79 l_n0))
  (let ((let80 mul_n18))
  (let ((let81 (ff.mul let80 let79)))
  (let ((let82 (= let81 let76)))
  (let ((let83 j_n5))
  (let ((let84 mul_n17))
  (let ((let85 (ff.mul let84 let83)))
  (let ((let86 (= let85 let80)))
  (let ((let87 g_n11))
  (let ((let88 mul_n16))
  (let ((let89 (ff.mul let88 let87)))
  (let ((let90 (= let89 let84)))
  (let ((let91 f_n2))
  (let ((let92 c_n8))
  (let ((let93 (ff.mul let92 let91)))
  (let ((let94 (= let93 let88)))
  (let ((let95 (ff.mul let71 let40)))
  (let ((let96 (ff.mul let95 let73)))
  (let ((let97 (= let96 let70)))
  (let ((let98 (ff.mul let64 let2)))
  (let ((let99 d_n6))
  (let ((let100 (ff.add let99 let98)))
  (let ((let101 a_n12))
  (let ((let102 (ff.mul let101 let100)))
  (let ((let103 (= let102 let65)))
  (let ((let104 i_n7))
  (let ((let105 (ff.mul let104 let2)))
  (let ((let106 (ff.add let105 let1)))
  (let ((let107 h_n9))
  (let ((let108 (ff.mul let107 let106)))
  (let ((let109 (= let108 let58)))
  (let ((let110 (and let109 let103 let97 let94 let90 let86 let82 let78 let69 let63)))
  (let ((let111 (= let57 let0)))
  (let ((let112 (not let111)))
  (let ((let113 (= let92 let37)))
  (let ((let114 (= let87 let32)))
  (let ((let115 (= let104 let50)))
  (let ((let116 (= let91 let36)))
  (let ((let117 (= let73 let18)))
  (let ((let118 (= let99 let45)))
  (let ((let119 (= let107 let53)))
  (let ((let120 (= let79 let24)))
  (let ((let121 (= let83 let28)))
  (let ((let122 (= let101 let47)))
  (let ((let123 (= let64 let9)))
  (let ((let124 (= let71 let16)))
  (let ((let125 (and let124 let123 let122 let121 let120 let119 let118 let117 let116 let115 let114 let113)))
  (let ((let126 (and let125 let112 let110 let56)))
  let126
)))))))))))))))))))))))))))))))))))))))))))))))))))))))))))))))))))))))))))))))))))))))))))))))))))))))))))))))))))))))))))))))
)
(check-sat)
